Diamond
 3.567
0.5 0.5 0.0
0.0 0.5 0.5
0.5 0.0 0.5
 2
direct
0.0 0.0 0.0
0.25 0.25 0.25
