k-points
0
Monkhorst-pack
 15 15 15
 0 0 0
