SYSTEM = Real silicon

PREC = Normal
ISTART = 0
ICHARG = 2

ENCUT = 500.0 eV
ALGO = Normal
NELMIN = 4
NELM = 100
EDIFF = 1e-6
LREAL = .FALSE.

ISMEAR = 0
SIGMA = 0.1
